2
1000 6
135
72 1 4
73 1 3
74 1 5
75 1 4
76 1 3
77 1 4
78 1 6
79 1 4
80 1 5
81 1 2
82 1 5
83 1 6
84 1 4
85 1 2
86 1 6
87 1 3
88 1 2
89 1 4
90 1 4
91 1 2
92 1 5
93 1 4
94 1 3
95 1 4
96 1 5
97 1 3
98 1 5
99 1 4
100 1 4
101 1 2
102 1 4
103 1 3
104 1 5
105 1 2
106 1 5
107 1 5
108 1 5
109 1 4
110 1 2
111 1 3
112 1 4
113 1 6
114 1 2
115 1 3
116 1 4
117 1 2
118 1 4
119 1 2
120 1 4
121 1 5
122 1 6
123 1 2
124 1 3
125 1 2
127 1 5
128 1 5
129 1 1
130 1 1
131 1 5
132 1 4
133 1 2
134 1 2
135 1 4
136 1 3
137 1 2
138 1 3
139 1 5
140 1 1
141 1 1
142 1 5
143 1 2
144 1 6
145 1 7
146 1 3
147 1 8
148 1 4
149 1 6
150 1 5
151 1 1
152 1 4
153 1 5
154 1 4
156 1 4
157 1 6
158 1 6
159 1 2
160 1 1
161 1 3
162 1 1
163 1 2
165 1 4
166 1 4
167 1 4
168 1 3
169 1 7
170 1 3
171 1 7
172 1 3
173 1 3
174 1 7
175 1 6
176 1 2
177 1 3
178 1 3
179 1 2
180 1 3
181 1 2
183 1 4
184 1 3
185 1 5
186 1 3
187 1 8
188 1 4
189 1 8
190 1 3
191 1 3
192 1 1
193 1 7
194 1 5
195 1 3
196 1 2
197 1 1
198 1 4
199 1 2
200 1 3
201 1 2
202 1 6
203 1 4
204 1 3
205 1 3
206 1 3
207 1 1
208 1 5
209 1 4
210 1 1
